0
Node Left Objective IInf Best_Integer Best_Bound ItCnt Gap
0+ 0 nan nan 17080.7259 -1708.0726 nan 110.00%
0+ 0 nan nan -66.3573 -1708.0726 nan ---
0 0 -93.0816 11 -66.3573 -93.0816 79 40.27%
0+ 0 nan nan -85.7652 -93.0816 nan 8.53%
0 0 -92.8702 10 -85.7652 Cuts:11 81 8.28%
0 0 -92.5833 11 -85.7652 Cuts:10 87 7.95%
0 0 -92.2872 13 -85.7652 Cuts:5 93 7.60%
0 0 -92.1063 13 -85.7652 MIRcuts:5 101 7.39%
0 0 -91.8728 13 -85.7652 Cuts:6 107 7.12%
0 0 -91.7251 12 -85.7652 Cuts:3 113 6.95%
0 0 -91.5292 11 -85.7652 MIRcuts:3 119 6.72%
0 2 -90.7711 11 -85.7652 -90.4580 119 5.47%
CPXPARAM_MIP_Cuts_FlowCovers-MIRCut:FlowCovers 0
CPXPARAM_MIP_Cuts_FlowCovers-MIRCut:MIRCut 5
1
Node Left Objective IInf Best_Integer Best_Bound ItCnt Gap
0+ 0 nan nan 17807.5550 -1780.7555 nan 110.00%
0+ 0 nan nan -246.6070 -1780.7555 nan 622.10%
0 0 -451.0443 22 -246.6070 -451.0443 124 82.90%
0+ 0 nan nan -437.4023 -451.0443 nan 3.12%
0 0 -450.8183 17 -437.4023 MIRcuts:7 132 3.07%
0+ 0 nan nan -441.7063 -450.8183 nan 2.06%
0 0 -450.6390 20 -441.7063 Cuts:15 141 2.02%
0 0 -450.4057 17 -441.7063 MIRcuts:10 148 1.97%
0 0 -450.3896 19 -441.7063 Cuts:6 158 1.97%
0 0 -450.3395 12 -441.7063 MIRcuts:4 164 1.95%
0 0 -450.2984 12 -441.7063 MIRcuts:3 170 1.95%
0 0 -450.2312 13 -441.7063 MIRcuts:6 176 1.93%
0+ 0 nan nan -441.8927 -450.2312 nan 1.89%
0 0 -450.2312 13 -441.8927 MIRcuts:1 177 1.89%
0+ 0 nan nan -442.9897 -450.2312 nan 1.63%
0+ 0 nan nan -444.6720 -450.2312 nan 1.25%
0 2 -449.6359 10 -444.6720 -449.3585 177 1.05%
CPXPARAM_MIP_Cuts_FlowCovers-MIRCut:FlowCovers 0
CPXPARAM_MIP_Cuts_FlowCovers-MIRCut:MIRCut 13
2
Node Left Objective IInf Best_Integer Best_Bound ItCnt Gap
0+ 0 nan nan 21992.9672 -2199.2967 nan 110.00%
0+ 0 nan nan -144.9985 -2199.2967 nan ---
0 0 cutoff -144.9985 -144.9985 77 0.00%
0 0 cutoff -144.9985 -144.9985 77 0.00% 0
CPXPARAM_MIP_Cuts_FlowCovers-MIRCut:FlowCovers 0
CPXPARAM_MIP_Cuts_FlowCovers-MIRCut:MIRCut 0
3
Node Left Objective IInf Best_Integer Best_Bound ItCnt Gap
0+ 0 nan nan 15130.5599 -1513.0560 nan 110.00%
0+ 0 nan nan -319.1991 -1513.0560 nan 374.02%
0 0 -373.2689 13 -319.1991 -373.2689 81 16.94%
0+ 0 nan nan -322.8337 -373.2689 nan 15.62%
0 0 -373.2689 8 -322.8337 MIRcuts:3 89 15.62%
0 0 -373.2689 8 -322.8337 MIRcuts:3 93 15.62%
0 0 -373.2689 8 -322.8337 MIRcuts:1 94 15.62%
0+ 0 nan nan -371.0358 -373.2689 nan 0.60%
0 1 -373.0422 8 -371.0358 -372.7619 116 0.47%
CPXPARAM_MIP_Cuts_FlowCovers-MIRCut:FlowCovers 0
CPXPARAM_MIP_Cuts_FlowCovers-MIRCut:MIRCut 5
4
Node Left Objective IInf Best_Integer Best_Bound ItCnt Gap
0+ 0 nan nan 17229.3640 -1722.9364 nan 110.00%
0+ 0 nan nan -67.4145 -1722.9364 nan ---
0 0 -89.1646 11 -67.4145 -89.1646 97 32.26%
0 0 -89.0671 10 -67.4145 Cuts:18 98 32.12%
0 0 -89.0625 10 -67.4145 Cuts:7 101 32.11%
0+ 0 nan nan -85.3062 -89.0625 nan 4.40%
0 0 -88.9442 9 -85.3062 MIRcuts:5 108 4.26%
0 0 -88.8935 12 -85.3062 Cuts:6 114 4.21%
0 0 -88.8283 11 -85.3062 MIRcuts:6 120 4.13%
0 0 -88.8033 11 -85.3062 MIRcuts:3 125 4.10%
0 0 -88.7593 11 -85.3062 MIRcuts:3 132 4.05%
0 0 -88.6837 11 -85.3062 MIRcuts:3 140 3.96%
0 0 -88.6514 11 -85.3062 MIRcuts:4 146 3.92%
0 0 -88.6434 11 -85.3062 MIRcuts:1 148 3.91%
0 0 -88.6426 9 -85.3062 MIRcuts:1 149 3.91%
0 2 -87.9618 4 -85.3062 -87.7531 149 2.87%
CPXPARAM_MIP_Cuts_FlowCovers-MIRCut:FlowCovers 0
CPXPARAM_MIP_Cuts_FlowCovers-MIRCut:MIRCut 10
5
Node Left Objective IInf Best_Integer Best_Bound ItCnt Gap
0+ 0 nan nan 19297.4075 -1929.7408 nan 110.00%
0+ 0 nan nan -216.7443 -1929.7408 nan 790.33%
0 0 -495.8139 18 -216.7443 -495.8139 104 128.76%
0+ 0 nan nan -360.6431 -495.8139 nan 37.48%
0 0 -495.7889 19 -360.6431 MIRcuts:14 108 37.47%
0 0 -495.7232 21 -360.6431 Cuts:16 128 37.46%
0 0 -495.6002 21 -360.6431 MIRcuts:20 146 37.42%
0 0 -495.5507 21 -360.6431 MIRcuts:16 161 37.41%
0 0 -495.4558 22 -360.6431 Cuts:7 172 37.38%
0 0 -495.4502 23 -360.6431 MIRcuts:5 178 37.38%
0 0 -495.4381 22 -360.6431 MIRcuts:9 187 37.38%
0+ 0 nan nan -481.1561 -495.4381 nan 2.97%
0+ 0 nan nan -483.6311 -495.4381 nan 2.44%
0 2 -495.4381 22 -483.6311 -495.3834 187 2.43%
CPXPARAM_MIP_Cuts_FlowCovers-MIRCut:FlowCovers 0
CPXPARAM_MIP_Cuts_FlowCovers-MIRCut:MIRCut 15
6
Node Left Objective IInf Best_Integer Best_Bound ItCnt Gap
0+ 0 nan nan 17283.6857 -1728.3686 nan 110.00%
0+ 0 nan nan -89.3561 -1728.3686 nan ---
0 0 -92.8995 6 -89.3561 -92.8995 83 3.97%
0 0 -92.8995 8 -89.3561 MIRcuts:5 89 3.97%
0+ 0 nan nan -92.7479 -92.8995 nan 0.16%
0 0 -92.8995 8 -92.7479 MIRcuts:1 90 0.16%
0 1 -92.8339 3 -92.7479 -92.8287 90 0.09%
CPXPARAM_MIP_Cuts_FlowCovers-MIRCut:FlowCovers 0
CPXPARAM_MIP_Cuts_FlowCovers-MIRCut:MIRCut 3
7
Node Left Objective IInf Best_Integer Best_Bound ItCnt Gap
0+ 0 nan nan 18737.7240 -1873.9213 nan 110.00%
0+ 0 nan nan -349.2878 -1873.9213 nan 436.50%
0 0 -476.7132 19 -349.2878 -476.7132 92 36.48%
0+ 0 nan nan -351.7851 -476.7132 nan 35.51%
0 0 -476.6192 20 -351.7851 MIRcuts:7 113 35.49%
0 0 -476.5799 21 -351.7851 Cuts:22 130 35.47%
0 0 -476.0154 19 -351.7851 Cuts:14 153 35.31%
0 0 -475.9351 20 -351.7851 Cuts:13 172 35.29%
0 0 -475.8056 20 -351.7851 Cuts:15 191 35.25%
0 0 -475.5042 21 -351.7851 Cuts:13 213 35.17%
0 0 -475.3776 22 -351.7851 Cuts:9 225 35.13%
0 0 -475.3731 22 -351.7851 MIRcuts:2 227 35.13%
0 0 -475.2156 21 -351.7851 MIRcuts:2 232 35.09%
0 0 -475.2046 21 -351.7851 Cuts:9 239 35.08%
0+ 0 nan nan -468.0094 -475.2046 nan 1.54%
0+ 0 nan nan -470.1406 -475.2046 nan 1.08%
0 2 -475.2046 20 -470.1406 -475.1288 239 1.06%
CPXPARAM_MIP_Cuts_FlowCovers-MIRCut:FlowCovers 4
CPXPARAM_MIP_Cuts_FlowCovers-MIRCut:MIRCut 13
8
Node Left Objective IInf Best_Integer Best_Bound ItCnt Gap
0+ 0 nan nan 20324.0135 -2032.4014 nan 110.00%
0+ 0 nan nan -89.4132 -2032.4014 nan ---
0 0 -103.1383 11 -89.4132 -103.1383 78 15.35%
0 0 -103.0493 13 -89.4132 MIRcuts:8 83 15.25%
0 0 -102.9722 12 -89.4132 Cuts:13 94 15.16%
0+ 0 nan nan -102.0140 -102.9722 nan 0.94%
0 0 -102.7587 12 -102.0140 MIRcuts:7 103 0.73%
0 0 -102.7581 12 -102.0140 MIRcuts:3 105 0.73%
0 0 -102.7490 8 -102.0140 MIRcuts:1 106 0.72%
0 0 -102.7401 9 -102.0140 MIRcuts:2 109 0.71%
0 0 -102.6972 6 -102.0140 MIRcuts:2 113 0.67%
0 0 -102.6963 6 -102.0140 MIRcuts:1 114 0.67%
0 2 -102.4628 2 -102.0140 -102.2710 114 0.25%
CPXPARAM_MIP_Cuts_FlowCovers-MIRCut:FlowCovers 0
CPXPARAM_MIP_Cuts_FlowCovers-MIRCut:MIRCut 6
9
Node Left Objective IInf Best_Integer Best_Bound ItCnt Gap
0+ 0 nan nan 19574.3912 -1957.4391 nan 110.00%
0+ 0 nan nan -340.7562 -1957.4391 nan 474.44%
0 0 -481.4397 15 -340.7562 -481.4397 75 41.29%
0+ 0 nan nan -474.2321 -481.4397 nan 1.52%
0 0 -481.3519 11 -474.2321 Cuts:11 81 1.50%
0 0 -481.2671 11 -474.2321 MIRcuts:8 88 1.48%
0 0 -481.0578 12 -474.2321 Cuts:14 95 1.44%
0 0 -481.0406 12 -474.2321 MIRcuts:15 108 1.44%
0 0 -480.9900 14 -474.2321 MIRcuts:12 120 1.43%
0 0 -480.9814 15 -474.2321 MIRcuts:6 128 1.42%
0 2 -480.9814 14 -474.2321 -480.9788 128 1.42%
CPXPARAM_MIP_Cuts_FlowCovers-MIRCut:FlowCovers 0
CPXPARAM_MIP_Cuts_FlowCovers-MIRCut:MIRCut 7
10
Node Left Objective IInf Best_Integer Best_Bound ItCnt Gap
0+ 0 nan nan 27187.3215 -2718.7321 nan 110.00%
0+ 0 nan nan 10.9576 -2718.7321 nan ---
0 0 -173.4759 5 10.9576 -173.4759 75 ---
0+ 0 nan nan 7.7729 -173.4759 nan ---
0+ 0 nan nan -171.3795 -173.4759 nan 1.22%
0 0 -173.4759 5 -171.3795 MIRcuts:2 76 1.22%
0 2 -173.4759 3 -171.3795 -173.4759 76 1.22%
CPXPARAM_MIP_Cuts_FlowCovers-MIRCut:FlowCovers 0
CPXPARAM_MIP_Cuts_FlowCovers-MIRCut:MIRCut 1
11
Node Left Objective IInf Best_Integer Best_Bound ItCnt Gap
0+ 0 nan nan 22470.7077 -2247.0708 nan 110.00%
0+ 0 nan nan -339.2451 -2247.0708 nan 562.37%
0 0 -573.6242 10 -339.2451 -573.6242 79 69.09%
0+ 0 nan nan -570.2156 -573.6242 nan 0.60%
0 0 -573.6242 12 -570.2156 MIRcuts:3 90 0.60%
0 0 -573.6242 14 -570.2156 MIRcuts:4 94 0.60%
0 2 -573.6242 11 -570.2156 -573.6242 94 0.60%
CPXPARAM_MIP_Cuts_FlowCovers-MIRCut:FlowCovers 0
CPXPARAM_MIP_Cuts_FlowCovers-MIRCut:MIRCut 0
12
Node Left Objective IInf Best_Integer Best_Bound ItCnt Gap
0+ 0 nan nan 21290.0070 -2129.0007 nan 110.00%
0+ 0 nan nan -108.2542 -2129.0007 nan ---
0 0 -125.5769 9 -108.2542 -125.5769 93 16.00%
0+ 0 nan nan -118.3639 -125.5769 nan 6.09%
0 0 -125.4356 11 -118.3639 MIRcuts:10 101 5.97%
0 0 -125.3305 12 -118.3639 MIRcuts:11 114 5.89%
0 0 -124.8861 12 -118.3639 MIRcuts:10 126 5.51%
0 0 -124.7834 13 -118.3639 MIRcuts:8 137 5.42%
0 0 -124.7166 13 -118.3639 MIRcuts:11 147 5.37%
0 0 -124.6495 12 -118.3639 Cuts:10 154 5.31%
0 0 -124.6277 12 -118.3639 MIRcuts:5 157 5.29%
0 0 -124.6147 12 -118.3639 MIRcuts:1 158 5.28%
0 0 -124.6033 12 -118.3639 MIRcuts:4 162 5.27%
0+ 0 nan nan -121.2111 -124.6033 nan 2.80%
0 2 -123.6805 8 -121.2111 -123.6423 162 2.01%
CPXPARAM_MIP_Cuts_FlowCovers-MIRCut:FlowCovers 0
CPXPARAM_MIP_Cuts_FlowCovers-MIRCut:MIRCut 11
13
Node Left Objective IInf Best_Integer Best_Bound ItCnt Gap
0+ 0 nan nan 18711.1828 -1871.1183 nan 110.00%
0+ 0 nan nan -86.7463 -1871.1183 nan ---
0 0 -468.4244 16 -86.7463 -468.4244 90 439.99%
0+ 0 nan nan -462.1230 -468.4244 nan 1.36%
0 0 -468.3751 18 -462.1230 Cuts:12 95 1.35%
0 0 -468.2743 18 -462.1230 Cuts:18 108 1.33%
0 0 -468.2712 18 -462.1230 Cuts:10 115 1.33%
0 0 -468.1504 15 -462.1230 MIRcuts:6 120 1.30%
0 0 -468.1313 19 -462.1230 MIRcuts:16 132 1.30%
0 2 -468.1313 17 -462.1230 -468.1197 132 1.30%
CPXPARAM_MIP_Cuts_FlowCovers-MIRCut:FlowCovers 0
CPXPARAM_MIP_Cuts_FlowCovers-MIRCut:MIRCut 13
14
Node Left Objective IInf Best_Integer Best_Bound ItCnt Gap
0+ 0 nan nan 22739.1838 -2273.9184 nan 110.00%
0+ 0 nan nan -144.2844 -2273.9184 nan ---
0 0 -146.9071 10 -144.2844 -146.9071 80 1.82%
0 0 -146.9071 8 -144.2844 MIRcuts:4 85 1.82%
0 0 -146.9071 7 -144.2844 Cuts:6 88 1.82%
0 0 -146.9071 9 -144.2844 MIRcuts:5 94 1.82%
0 2 -146.9071 9 -144.2844 -146.9071 94 1.82%
CPXPARAM_MIP_Cuts_FlowCovers-MIRCut:FlowCovers 0
CPXPARAM_MIP_Cuts_FlowCovers-MIRCut:MIRCut 5
15
Node Left Objective IInf Best_Integer Best_Bound ItCnt Gap
0+ 0 nan nan 20293.1236 -2029.3124 nan 110.00%
0+ 0 nan nan -243.7454 -2029.3124 nan 732.55%
0 0 -518.7322 13 -243.7454 -518.7322 83 112.82%
0+ 0 nan nan -315.8010 -518.7322 nan 64.26%
0+ 0 nan nan -450.6273 -518.7322 nan 15.11%
0 0 -518.7322 15 -450.6273 MIRcuts:11 101 15.11%
0 0 -518.7322 13 -450.6273 MIRcuts:12 114 15.11%
0 0 -518.7322 17 -450.6273 MIRcuts:11 129 15.11%
0+ 0 nan nan -514.4241 -518.7322 nan 0.84%
0 2 -518.7095 14 -514.4241 -518.6827 129 0.83%
CPXPARAM_MIP_Cuts_FlowCovers-MIRCut:FlowCovers 0
CPXPARAM_MIP_Cuts_FlowCovers-MIRCut:MIRCut 8
16
Node Left Objective IInf Best_Integer Best_Bound ItCnt Gap
0+ 0 nan nan 21872.1954 -2187.2195 nan 110.00%
0+ 0 nan nan -112.2220 -2187.2195 nan ---
0 0 -126.4787 11 -112.2220 -126.4787 89 12.70%
0 0 -126.4774 11 -112.2220 MIRcuts:7 97 12.70%
0 0 -126.3357 12 -112.2220 MIRcuts:15 105 12.58%
0 0 -126.3087 12 -112.2220 MIRcuts:9 114 12.55%
0+ 0 nan nan -116.1773 -126.3087 nan 8.72%
0 0 -126.2842 10 -116.1773 Cuts:6 122 8.70%
0+ 0 nan nan -124.3570 -126.2842 nan 1.55%
0 0 -126.1585 12 -124.3570 MIRcuts:17 132 1.45%
0 0 -126.1585 15 -124.3570 MIRcuts:8 138 1.45%
0 0 -126.1585 14 -124.3570 MIRcuts:5 142 1.45%
0 2 -126.1585 12 -124.3570 -126.0502 142 1.36%
CPXPARAM_MIP_Cuts_FlowCovers-MIRCut:FlowCovers 0
CPXPARAM_MIP_Cuts_FlowCovers-MIRCut:MIRCut 10
17
Node Left Objective IInf Best_Integer Best_Bound ItCnt Gap
0+ 0 nan nan 16639.6111 -1663.9611 nan 110.00%
0+ 0 nan nan -399.5270 -1663.9611 nan 316.48%
0 0 -404.1656 14 -399.5270 -404.1656 83 1.16%
0 0 -404.1479 15 -399.5270 MIRcuts:7 93 1.16%
0 0 -404.1396 15 -399.5270 MIRcuts:7 102 1.15%
0 0 -403.9264 16 -399.5270 MIRcuts:11 124 1.10%
0 0 -403.9140 14 -399.5270 MIRcuts:14 131 1.10%
0+ 0 nan nan -400.1632 -403.9140 nan 0.94%
0 0 -403.9140 14 -400.1632 MIRcuts:2 135 0.94%
0+ 0 nan nan -400.6659 -403.9140 nan 0.81%
0 2 -403.9140 12 -400.6659 -403.9140 135 0.81%
CPXPARAM_MIP_Cuts_FlowCovers-MIRCut:FlowCovers 0
CPXPARAM_MIP_Cuts_FlowCovers-MIRCut:MIRCut 6
18
Node Left Objective IInf Best_Integer Best_Bound ItCnt Gap
0+ 0 nan nan 18821.9021 -1882.1902 nan 110.00%
0+ 0 nan nan -97.2991 -1882.1902 nan ---
0 0 -99.0172 8 -97.2991 -99.0172 77 1.77%
0 0 -99.0172 8 -97.2991 MIRcuts:4 80 1.77%
0 0 -99.0172 9 -97.2991 MIRcuts:2 83 1.77%
0+ 0 nan nan -98.8895 -99.0172 nan 0.13%
0 1 -99.0172 7 -98.8895 -99.0172 83 0.13%
CPXPARAM_MIP_Cuts_FlowCovers-MIRCut:FlowCovers 0
CPXPARAM_MIP_Cuts_FlowCovers-MIRCut:MIRCut 4
19
Node Left Objective IInf Best_Integer Best_Bound ItCnt Gap
0+ 0 nan nan 19012.1137 -1901.2740 nan 110.00%
0+ 0 nan nan -411.3325 -1901.2740 nan 362.22%
0 0 -474.7865 8 -411.3325 -474.7865 76 15.43%
0+ 0 nan nan -411.4107 -474.7865 nan 15.40%
0+ 0 nan nan -472.5175 -474.7865 nan 0.48%
0 0 -474.7865 10 -472.5175 MIRcuts:7 86 0.48%
0+ 0 nan nan -473.4153 -474.7865 nan 0.29%
0 0 -474.7865 2 -473.4153 MIRcuts:1 90 0.29%
0+ 0 nan nan -474.7791 -474.7865 nan 0.00%
CPXPARAM_MIP_Cuts_FlowCovers-MIRCut:FlowCovers 0
CPXPARAM_MIP_Cuts_FlowCovers-MIRCut:MIRCut 1
20
Node Left Objective IInf Best_Integer Best_Bound ItCnt Gap
0+ 0 nan nan 15115.0246 -1511.5025 nan 110.00%
0+ 0 nan nan -66.4447 -1511.5025 nan ---
0 0 -90.2455 12 -66.4447 -90.2455 91 35.82%
0 0 -90.2010 14 -66.4447 Cuts:15 96 35.75%
0+ 0 nan nan -88.1244 -90.2010 nan 2.36%
0 0 -90.0629 11 -88.1244 Cuts:18 104 2.20%
0 0 -89.9684 12 -88.1244 Cuts:24 117 2.09%
0 0 -89.8038 12 -88.1244 MIRcuts:10 132 1.91%
0 0 -89.7604 12 -88.1244 MIRcuts:3 138 1.86%
0 0 -89.5933 11 -88.1244 MIRcuts:7 159 1.67%
0 0 -89.4551 11 -88.1244 MIRcuts:11 170 1.51%
0 0 -89.4551 11 -88.1244 MIRcuts:1 171 1.51%
0 0 cutoff -88.1244 -89.4551 171 1.51% 0
CPXPARAM_MIP_Cuts_FlowCovers-MIRCut:FlowCovers 0
CPXPARAM_MIP_Cuts_FlowCovers-MIRCut:MIRCut 11
21
Node Left Objective IInf Best_Integer Best_Bound ItCnt Gap
0+ 0 nan nan 15333.4248 -1533.3425 nan 110.00%
0+ 0 nan nan -221.9629 -1533.3425 nan 590.81%
0 0 -397.2126 26 -221.9629 -397.2126 110 78.95%
0+ 0 nan nan -235.8252 -397.2126 nan 68.44%
0 0 -397.0693 27 -235.8252 Cuts:15 112 68.37%
0 0 -396.6525 26 -235.8252 MIRcuts:12 129 68.20%
0 0 -396.2315 27 -235.8252 Cuts:9 146 68.02%
0+ 0 nan nan -287.3368 -396.2315 nan 37.90%
0 0 -395.7581 29 -287.3368 Cuts:10 160 37.73%
0 0 -395.5284 29 -287.3368 Cuts:12 175 37.65%
0+ 0 nan nan -332.5079 -395.5284 nan 18.95%
0 0 -395.4132 27 -332.5079 MIRcuts:9 185 18.92%
0 0 -395.3582 27 -332.5079 MIRcuts:2 191 18.90%
0 0 -395.2682 27 -332.5079 MIRcuts:5 198 18.87%
0 0 -395.2300 27 -332.5079 MIRcuts:2 205 18.86%
0 0 -395.2212 27 -332.5079 Cuts:2 209 18.86%
0+ 0 nan nan -336.4258 -395.2212 nan 17.48%
0+ 0 nan nan -382.1643 -395.2212 nan 3.42%
0+ 0 nan nan -384.2302 -395.2212 nan 2.86%
0 2 -394.7273 24 -384.2302 -394.7145 209 2.73%
CPXPARAM_MIP_Cuts_FlowCovers-MIRCut:FlowCovers 2
CPXPARAM_MIP_Cuts_FlowCovers-MIRCut:MIRCut 11
22
Node Left Objective IInf Best_Integer Best_Bound ItCnt Gap
0+ 0 nan nan 15579.5689 -1557.9569 nan 110.00%
0+ 0 nan nan -75.9857 -1557.9569 nan ---
0 0 -96.9770 4 -75.9857 -96.9770 80 27.63%
0+ 0 nan nan -96.9770 -96.9770 nan 0.00%
0 0 cutoff -96.9770 -96.9770 80 0.00% 0
CPXPARAM_MIP_Cuts_FlowCovers-MIRCut:FlowCovers 0
CPXPARAM_MIP_Cuts_FlowCovers-MIRCut:MIRCut 0
23
Node Left Objective IInf Best_Integer Best_Bound ItCnt Gap
0+ 0 nan nan 16097.8588 -1609.8715 nan 110.00%
0+ 0 nan nan -135.1706 -1609.8715 nan ---
0 0 -420.0439 21 -135.1706 -420.0439 92 210.75%
0+ 0 nan nan -205.3944 -420.0439 nan 104.51%
0+ 0 nan nan -308.1357 -420.0439 nan 36.32%
0 0 -419.4735 23 -308.1357 MIRcuts:13 117 36.13%
0 0 -417.7029 25 -308.1357 Cuts:26 141 35.56%
0 0 -416.6918 24 -308.1357 Cuts:25 168 35.23%
0 0 -416.2972 23 -308.1357 Cuts:16 196 35.10%
0 0 -415.9700 25 -308.1357 Cuts:11 216 35.00%
0 0 -415.6733 24 -308.1357 MIRcuts:15 241 34.90%
0 0 -415.3634 25 -308.1357 MIRcuts:9 260 34.80%
0 0 -415.2719 26 -308.1357 Cuts:11 280 34.77%
0 0 -415.1285 23 -308.1357 Cuts:9 298 34.72%
0+ 0 nan nan -357.4132 -415.1285 nan 16.15%
0 0 -415.1139 24 -357.4132 Cuts:14 309 16.14%
0+ 0 nan nan -358.6380 -415.1139 nan 15.75%
0 0 -415.0999 25 -358.6380 MIRcuts:12 312 15.74%
0+ 0 nan nan -408.9864 -415.0999 nan 1.49%
0 2 -415.0999 25 -408.9864 -415.0949 312 1.49%
CPXPARAM_MIP_Cuts_FlowCovers-MIRCut:FlowCovers 3
CPXPARAM_MIP_Cuts_FlowCovers-MIRCut:MIRCut 22
24
Node Left Objective IInf Best_Integer Best_Bound ItCnt Gap
0+ 0 nan nan 18436.4445 -1843.6444 nan 110.00%
0+ 0 nan nan -94.2493 -1843.6444 nan ---
0 0 -115.3546 13 -94.2493 -115.3546 85 22.39%
0+ 0 nan nan -112.0044 -115.3546 nan 2.99%
0 0 -115.2790 9 -112.0044 Cuts:10 90 2.92%
0 0 -115.1768 8 -112.0044 MIRcuts:5 96 2.83%
0 0 -115.1740 8 -112.0044 MIRcuts:1 97 2.83%
0 2 -113.4163 4 -112.0044 -113.2240 97 1.09%
CPXPARAM_MIP_Cuts_FlowCovers-MIRCut:FlowCovers 0
CPXPARAM_MIP_Cuts_FlowCovers-MIRCut:MIRCut 7
25
Node Left Objective IInf Best_Integer Best_Bound ItCnt Gap
0+ 0 nan nan 18806.7169 -1880.6717 nan 110.00%
0+ 0 nan nan -288.0183 -1880.6717 nan 552.97%
0 0 -492.8236 25 -288.0183 -492.8236 100 71.11%
0+ 0 nan nan -362.9258 -492.8236 nan 35.79%
0 0 -491.8891 27 -362.9258 Cuts:17 118 35.53%
0 0 -491.2131 25 -362.9258 MIRcuts:12 136 35.35%
0 0 -490.9778 25 -362.9258 MIRcuts:11 154 35.28%
0 0 -490.8580 25 -362.9258 MIRcuts:5 165 35.25%
0 0 -490.8033 25 -362.9258 MIRcuts:4 172 35.24%
0 0 -490.7955 25 -362.9258 MIRcuts:1 175 35.23%
0 0 -490.5685 26 -362.9258 MIRcuts:4 187 35.17%
0 0 -490.4421 26 -362.9258 MIRcuts:4 195 35.14%
0 0 -490.3589 28 -362.9258 MIRcuts:7 202 35.11%
0 0 -490.3316 27 -362.9258 MIRcuts:7 211 35.11%
0+ 0 nan nan -415.7149 -490.3316 nan 17.95%
0+ 0 nan nan -476.8780 -490.3316 nan 2.82%
0 2 -490.3316 26 -476.8780 -490.3174 211 2.82%
CPXPARAM_MIP_Cuts_FlowCovers-MIRCut:FlowCovers 0
CPXPARAM_MIP_Cuts_FlowCovers-MIRCut:MIRCut 16
26
Node Left Objective IInf Best_Integer Best_Bound ItCnt Gap
0+ 0 nan nan 18555.8907 -1855.7233 nan 110.00%
0+ 0 nan nan -104.0034 -1855.7233 nan ---
0 0 -115.9815 5 -104.0034 -115.9815 67 11.52%
0+ 0 nan nan -115.9815 -115.9815 nan 0.00%
0 0 cutoff -115.9815 -115.9815 67 0.00% 0
CPXPARAM_MIP_Cuts_FlowCovers-MIRCut:FlowCovers 0
CPXPARAM_MIP_Cuts_FlowCovers-MIRCut:MIRCut 0
27
Node Left Objective IInf Best_Integer Best_Bound ItCnt Gap
0+ 0 nan nan 17101.2086 -1710.7893 nan 110.00%
0+ 0 nan nan -257.8104 -1710.7893 nan 563.58%
0 0 -441.6815 19 -257.8104 -441.6815 93 71.32%
0+ 0 nan nan -327.4274 -441.6815 nan 34.89%
0 0 -441.6540 21 -327.4274 MIRcuts:12 108 34.89%
0 0 -440.7590 18 -327.4274 MIRcuts:14 130 34.61%
0+ 0 nan nan -327.5556 -440.7590 nan 34.56%
0 0 -439.6393 21 -327.5556 Cuts:7 150 34.22%
0+ 0 nan nan -327.6314 -439.6393 nan 34.19%
0 0 -439.5611 18 -327.6314 MIRcuts:20 171 34.16%
0 0 -439.1536 22 -327.6314 Cuts:12 192 34.04%
0 0 -438.7330 23 -327.6314 Cuts:9 208 33.91%
0 0 -438.6672 23 -327.6314 Cuts:8 218 33.89%
0 0 -438.5856 22 -327.6314 Cuts:8 233 33.87%
0 0 -438.4028 22 -327.6314 Cuts:10 245 33.81%
0 0 -438.2872 22 -327.6314 Flowcuts:2 247 33.77%
0+ 0 nan nan -432.2503 -438.2872 nan 1.40%
0 2 -438.2872 22 -432.2503 -438.2362 247 1.38%
CPXPARAM_MIP_Cuts_FlowCovers-MIRCut:FlowCovers 10
CPXPARAM_MIP_Cuts_FlowCovers-MIRCut:MIRCut 14
28
Node Left Objective IInf Best_Integer Best_Bound ItCnt Gap
0+ 0 nan nan 23195.9038 -2319.5904 nan 110.00%
0+ 0 nan nan -104.6712 -2319.5904 nan ---
0 0 -120.0533 11 -104.6712 -120.0533 77 14.70%
0 0 -119.9379 10 -104.6712 Cuts:14 84 14.59%
0 0 -119.8644 11 -104.6712 MIRcuts:10 95 14.52%
0 0 -119.8091 11 -104.6712 MIRcuts:4 104 14.46%
0 0 -119.7963 11 -104.6712 MIRcuts:4 111 14.45%
0 0 -119.7963 11 -104.6712 MIRcuts:1 112 14.45%
0+ 0 nan nan -115.2003 -119.7963 nan 3.99%
0+ 0 nan nan -116.8709 -119.7963 nan 2.50%
0 2 -119.6000 6 -116.8709 -119.5543 112 2.30%
CPXPARAM_MIP_Cuts_FlowCovers-MIRCut:FlowCovers 0
CPXPARAM_MIP_Cuts_FlowCovers-MIRCut:MIRCut 4
29
Node Left Objective IInf Best_Integer Best_Bound ItCnt Gap
0+ 0 nan nan 18473.6572 -1847.3657 nan 110.00%
0+ 0 nan nan -427.6235 -1847.3657 nan 332.01%
0 0 -444.7353 17 -427.6235 -444.7353 96 4.00%
0 0 -444.4333 11 -427.6235 MIRcuts:17 100 3.93%
0 0 -444.3466 15 -427.6235 Cuts:17 112 3.91%
0 0 -444.2441 17 -427.6235 Cuts:20 120 3.89%
0 0 -444.0992 19 -427.6235 Cuts:23 144 3.85%
0 0 -443.8942 16 -427.6235 Cuts:20 163 3.80%
0 0 -443.8233 23 -427.6235 Cuts:15 182 3.79%
0 0 -443.7901 20 -427.6235 Cuts:14 197 3.78%
0 0 -443.7320 17 -427.6235 MIRcuts:11 213 3.77%
0 0 -443.7033 15 -427.6235 MIRcuts:8 223 3.76%
0 0 -443.6748 17 -427.6235 MIRcuts:8 240 3.75%
0+ 0 nan nan -441.1131 -443.6748 nan 0.58%
0 2 -443.4255 7 -441.1131 -443.3401 240 0.50%
CPXPARAM_MIP_Cuts_FlowCovers-MIRCut:FlowCovers 0
CPXPARAM_MIP_Cuts_FlowCovers-MIRCut:MIRCut 17
30
Node Left Objective IInf Best_Integer Best_Bound ItCnt Gap
0+ 0 nan nan 20012.4297 -2001.2537 nan 110.00%
0+ 0 nan nan -82.7793 -2001.2537 nan ---
0 0 -93.4019 2 -82.7793 -93.4019 66 12.83%
0+ 0 nan nan -93.4019 -93.4019 nan 0.00%
CPXPARAM_MIP_Cuts_FlowCovers-MIRCut:FlowCovers 0
CPXPARAM_MIP_Cuts_FlowCovers-MIRCut:MIRCut 0
31
Node Left Objective IInf Best_Integer Best_Bound ItCnt Gap
0+ 0 nan nan 20469.5526 -2046.9553 nan 110.00%
0+ 0 nan nan -497.9458 -2046.9553 nan 311.08%
0 0 -506.7396 12 -497.9458 -506.7396 92 1.77%
0+ 0 nan nan -501.8232 -506.7396 nan 0.98%
0 0 -506.7396 3 -501.8232 MIRcuts:1 96 0.98%
0+ 0 nan nan -506.6867 -506.7396 nan 0.01%
0 0 -506.7396 3 -506.6867 MIRcuts:1 98 0.01%
0 0 cutoff -506.6867 -506.7396 102 0.01% 0
CPXPARAM_MIP_Cuts_FlowCovers-MIRCut:FlowCovers 0
CPXPARAM_MIP_Cuts_FlowCovers-MIRCut:MIRCut 2
32
Node Left Objective IInf Best_Integer Best_Bound ItCnt Gap
0+ 0 nan nan 13911.0729 -1391.1073 nan 110.00%
0+ 0 nan nan -39.6136 -1391.1073 nan ---
0 0 -68.2827 6 -39.6136 -68.2827 77 72.37%
0+ 0 nan nan -65.9578 -68.2827 nan 3.52%
0 0 -67.9875 7 -65.9578 Cuts:16 81 3.08%
0 0 -67.6612 7 -65.9578 MIRcuts:7 86 2.58%
0 0 -67.3522 7 -65.9578 MIRcuts:8 98 2.11%
0 0 -67.2182 7 -65.9578 MIRcuts:7 103 1.91%
0 0 -67.2073 7 -65.9578 MIRcuts:1 105 1.89%
0 0 -67.1330 7 -65.9578 Cuts:4 108 1.78%
0 0 -67.1309 7 -65.9578 MIRcuts:1 109 1.78%
0 0 -67.0753 7 -65.9578 MIRcuts:1 111 1.69%
0 0 -67.0753 9 -65.9578 MIRcuts:1 113 1.69%
0 0 cutoff -65.9578 -67.0753 113 1.69% 0
CPXPARAM_MIP_Cuts_FlowCovers-MIRCut:FlowCovers 1
CPXPARAM_MIP_Cuts_FlowCovers-MIRCut:MIRCut 10
33
Node Left Objective IInf Best_Integer Best_Bound ItCnt Gap
0+ 0 nan nan 16748.4512 -1674.8451 nan 110.00%
0+ 0 nan nan -180.4833 -1674.8451 nan 827.98%
0 0 -425.8102 14 -180.4833 -425.8102 120 135.93%
0+ 0 nan nan -362.2668 -425.8102 nan 17.54%
0 0 -425.4595 14 -362.2668 MIRcuts:14 130 17.44%
0 0 -425.4215 18 -362.2668 MIRcuts:28 150 17.43%
0 0 -425.3155 19 -362.2668 MIRcuts:27 173 17.40%
0 0 -425.2821 21 -362.2668 MIRcuts:21 182 17.39%
0 0 -425.2557 25 -362.2668 MIRcuts:33 200 17.39%
0 0 -425.0843 23 -362.2668 Cuts:25 214 17.34%
0 0 -424.8027 28 -362.2668 Cuts:25 236 17.26%
0 0 -424.6629 26 -362.2668 MIRcuts:16 254 17.22%
0 0 -424.6099 28 -362.2668 MIRcuts:10 265 17.21%
0 0 -424.4571 27 -362.2668 MIRcuts:14 287 17.17%
0 0 -424.3424 26 -362.2668 Cuts:11 305 17.14%
0 0 -424.3128 25 -362.2668 Cuts:10 314 17.13%
0 0 -424.2892 27 -362.2668 MIRcuts:9 325 17.12%
0+ 0 nan nan -417.2114 -424.2892 nan 1.70%
0 2 -424.2110 23 -417.2114 -424.1922 325 1.67%
CPXPARAM_MIP_Cuts_FlowCovers-MIRCut:FlowCovers 1
CPXPARAM_MIP_Cuts_FlowCovers-MIRCut:MIRCut 23
34
Node Left Objective IInf Best_Integer Best_Bound ItCnt Gap
0+ 0 nan nan 19055.0102 -1905.5010 nan 110.00%
0+ 0 nan nan -113.0294 -1905.5010 nan ---
0 0 -121.1718 5 -113.0294 -121.1718 75 7.20%
0+ 0 nan nan -117.8797 -121.1718 nan 2.79%
0 0 -121.1718 5 -117.8797 MIRcuts:3 78 2.79%
0+ 0 nan nan -118.4058 -121.1718 nan 2.34%
0 0 -121.1718 8 -118.4058 MIRcuts:3 90 2.34%
0+ 0 nan nan -119.6754 -121.1718 nan 1.25%
0 1 -121.1718 8 -119.6754 -121.1718 90 1.25%
CPXPARAM_MIP_Cuts_FlowCovers-MIRCut:FlowCovers 0
CPXPARAM_MIP_Cuts_FlowCovers-MIRCut:MIRCut 3
35
Node Left Objective IInf Best_Integer Best_Bound ItCnt Gap
0+ 0 nan nan 16780.9114 -1678.3241 nan 110.00%
0+ 0 nan nan -187.6361 -1678.3241 nan 794.46%
0 0 -420.9670 14 -187.6361 -420.9670 75 124.35%
0+ 0 nan nan -253.1346 -420.9670 nan 66.30%
0+ 0 nan nan -417.9530 -420.9670 nan 0.72%
0 0 -420.9670 13 -417.9530 MIRcuts:6 83 0.72%
0 0 -420.9670 15 -417.9530 MIRcuts:9 96 0.72%
0 0 -420.9670 20 -417.9530 MIRcuts:10 109 0.72%
0 2 -420.9670 12 -417.9530 -420.9670 109 0.72%
CPXPARAM_MIP_Cuts_FlowCovers-MIRCut:FlowCovers 0
CPXPARAM_MIP_Cuts_FlowCovers-MIRCut:MIRCut 0
36
Node Left Objective IInf Best_Integer Best_Bound ItCnt Gap
0+ 0 nan nan 22941.7465 -2294.1747 nan 110.00%
0+ 0 nan nan -123.5349 -2294.1747 nan ---
0 0 -146.5944 12 -123.5349 -146.5944 96 18.67%
0 0 -146.5652 7 -123.5349 MIRcuts:12 99 18.64%
0+ 0 nan nan -133.5300 -146.5652 nan 9.76%
0 0 -146.5185 8 -133.5300 MIRcuts:12 105 9.73%
0 0 -146.4771 8 -133.5300 MIRcuts:5 111 9.70%
0 0 -146.3159 8 -133.5300 MIRcuts:6 124 9.58%
0 0 -146.1427 7 -133.5300 MIRcuts:2 131 9.45%
0+ 0 nan nan -137.1704 -146.1427 nan 6.54%
0 0 -146.1126 8 -137.1704 MIRcuts:2 137 6.52%
0+ 0 nan nan -139.5063 -146.1126 nan 4.74%
0 2 -145.4963 5 -139.5063 -145.3720 137 4.20%
CPXPARAM_MIP_Cuts_FlowCovers-MIRCut:FlowCovers 0
CPXPARAM_MIP_Cuts_FlowCovers-MIRCut:MIRCut 6
37
Node Left Objective IInf Best_Integer Best_Bound ItCnt Gap
0+ 0 nan nan 22253.7712 -2225.3771 nan 110.00%
0+ 0 nan nan -192.7597 -2225.3771 nan ---
0 0 -583.6149 25 -192.7597 -583.6149 103 202.77%
0+ 0 nan nan -350.5396 -583.6149 nan 66.49%
0 0 -583.2295 27 -350.5396 MIRcuts:21 110 66.38%
0 0 -582.9367 24 -350.5396 MIRcuts:19 127 66.30%
0 0 -581.0565 27 -350.5396 MIRcuts:20 154 65.76%
0 0 -580.4009 26 -350.5396 MIRcuts:15 182 65.57%
0 0 -579.8902 25 -350.5396 MIRcuts:9 202 65.43%
0 0 -579.5813 29 -350.5396 MIRcuts:8 217 65.34%
0 0 -579.4999 27 -350.5396 Cuts:7 234 65.32%
0 0 -579.4572 28 -350.5396 MIRcuts:5 242 65.30%
0 0 -579.4295 27 -350.5396 MIRcuts:2 249 65.30%
0+ 0 nan nan -351.0132 -579.4295 nan 65.07%
0+ 0 nan nan -561.0740 -579.4295 nan 3.27%
0+ 0 nan nan -563.8176 -579.4295 nan 2.77%
0+ 0 nan nan -564.5562 -579.4295 nan 2.63%
0 2 -579.4295 27 -564.5562 -579.3583 249 2.62%
CPXPARAM_MIP_Cuts_FlowCovers-MIRCut:FlowCovers 1
CPXPARAM_MIP_Cuts_FlowCovers-MIRCut:MIRCut 17
38
Node Left Objective IInf Best_Integer Best_Bound ItCnt Gap
0+ 0 nan nan 19121.8104 -1912.4176 nan 110.00%
0+ 0 nan nan -95.8861 -1912.4176 nan ---
0 0 -109.3384 7 -95.8861 -109.3384 75 14.03%
0+ 0 nan nan -109.3384 -109.3384 nan 0.00%
0 0 cutoff -109.3384 -109.3384 75 0.00% 0
CPXPARAM_MIP_Cuts_FlowCovers-MIRCut:FlowCovers 0
CPXPARAM_MIP_Cuts_FlowCovers-MIRCut:MIRCut 0
39
Node Left Objective IInf Best_Integer Best_Bound ItCnt Gap
0+ 0 nan nan 22617.4474 -2261.8298 nan 110.00%
0+ 0 nan nan -361.4650 -2261.8298 nan 525.74%
0 0 -588.7435 24 -361.4650 -588.7435 97 62.88%
0+ 0 nan nan -434.4180 -588.7435 nan 35.52%
0 0 -587.0788 18 -434.4180 MIRcuts:26 122 35.14%
0 0 -585.0103 22 -434.4180 Cuts:12 150 34.67%
0 0 -584.8978 21 -434.4180 MIRcuts:24 165 34.64%
0 0 -584.2012 20 -434.4180 Cuts:9 183 34.48%
0 0 -584.1771 22 -434.4180 MIRcuts:8 193 34.47%
0+ 0 nan nan -434.5619 -584.1771 nan 34.43%
0 0 -584.1661 22 -434.5619 MIRcuts:4 203 34.43%
0+ 0 nan nan -570.8380 -584.1661 nan 2.33%
0+ 0 nan nan -572.7942 -584.1661 nan 1.99%
0 2 -584.1661 22 -572.7942 -584.1016 203 1.97%
CPXPARAM_MIP_Cuts_FlowCovers-MIRCut:FlowCovers 4
CPXPARAM_MIP_Cuts_FlowCovers-MIRCut:MIRCut 14
